(set-option :produce-models true)
 (set-logic ALL)
(declare-fun *status () String)
(declare-fun *@ss211 () String )
(declare-fun *@ss2110 () String )
(declare-fun *@sstring211 () String )
(assert (not (not (= (str.len *@ss2110) 3))  ) )
(assert (not (< (str.to_int *@ss2110) 100)  ) )
(assert (< (str.len *status) 4)  )
(assert (= *status (str.++  *@ss2110 *@sstring211 )))
(check-sat)
 (get-model)
